NAME           C:\Bruker\Hvattum\knapsack\Problems\class1\100-5-11.mps
ROWS
 N  OBJ
 L  CONSTR1
 L  CONSTR2
 L  CONSTR3
 L  CONSTR4
 L  CONSTR5
COLUMNS
    INT0001   'MARKER'  'INTORG'
    X1        OBJ       1231
    X1        CONSTR1   666
    X1        CONSTR2   716
    X1        CONSTR3   923
    X1        CONSTR4   742
    X1        CONSTR5   827
    X2        OBJ       498
    X2        CONSTR1   688
    X2        CONSTR2   97
    X2        CONSTR3   385
    X2        CONSTR4   496
    X2        CONSTR5   439
    X3        OBJ       927
    X3        CONSTR1   983
    X3        CONSTR2   257
    X3        CONSTR3   266
    X3        CONSTR4   589
    X3        CONSTR5   328
    X4        OBJ       1115
    X4        CONSTR1   479
    X4        CONSTR2   968
    X4        CONSTR3   374
    X4        CONSTR4   804
    X4        CONSTR5   494
    X5        OBJ       671
    X5        CONSTR1   117
    X5        CONSTR2   460
    X5        CONSTR3   886
    X5        CONSTR4   302
    X5        CONSTR5   745
    X6        OBJ       888
    X6        CONSTR1   68
    X6        CONSTR2   815
    X6        CONSTR3   895
    X6        CONSTR4   958
    X6        CONSTR5   386
    X7        OBJ       477
    X7        CONSTR1   357
    X7        CONSTR2   704
    X7        CONSTR3   107
    X7        CONSTR4   873
    X7        CONSTR5   124
    X8        OBJ       982
    X8        CONSTR1   972
    X8        CONSTR2   32
    X8        CONSTR3   647
    X8        CONSTR4   201
    X8        CONSTR5   996
    X9        OBJ       1018
    X9        CONSTR1   505
    X9        CONSTR2   961
    X9        CONSTR3   138
    X9        CONSTR4   818
    X9        CONSTR5   847
    X10       OBJ       699
    X10       CONSTR1   865
    X10       CONSTR2   767
    X10       CONSTR3   39
    X10       CONSTR4   391
    X10       CONSTR5   440
    X11       OBJ       772
    X11       CONSTR1   36
    X11       CONSTR2   253
    X11       CONSTR3   461
    X11       CONSTR4   491
    X11       CONSTR5   943
    X12       OBJ       867
    X12       CONSTR1   603
    X12       CONSTR2   693
    X12       CONSTR3   866
    X12       CONSTR4   166
    X12       CONSTR5   999
    X13       OBJ       913
    X13       CONSTR1   982
    X13       CONSTR2   737
    X13       CONSTR3   524
    X13       CONSTR4   133
    X13       CONSTR5   181
    X14       OBJ       534
    X14       CONSTR1   727
    X14       CONSTR2   316
    X14       CONSTR3   500
    X14       CONSTR4   125
    X14       CONSTR5   500
    X15       OBJ       762
    X15       CONSTR1   396
    X15       CONSTR2   780
    X15       CONSTR3   589
    X15       CONSTR4   858
    X15       CONSTR5   574
    X16       OBJ       707
    X16       CONSTR1   23
    X16       CONSTR2   233
    X16       CONSTR3   586
    X16       CONSTR4   858
    X16       CONSTR5   355
    X17       OBJ       610
    X17       CONSTR1   201
    X17       CONSTR2   190
    X17       CONSTR3   410
    X17       CONSTR4   516
    X17       CONSTR5   934
    X18       OBJ       797
    X18       CONSTR1   67
    X18       CONSTR2   414
    X18       CONSTR3   595
    X18       CONSTR4   468
    X18       CONSTR5   472
    X19       OBJ       801
    X19       CONSTR1   423
    X19       CONSTR2   393
    X19       CONSTR3   687
    X19       CONSTR4   113
    X19       CONSTR5   76
    X20       OBJ       705
    X20       CONSTR1   272
    X20       CONSTR2   143
    X20       CONSTR3   98
    X20       CONSTR4   688
    X20       CONSTR5   693
    X21       OBJ       397
    X21       CONSTR1   234
    X21       CONSTR2   536
    X21       CONSTR3   585
    X21       CONSTR4   40
    X21       CONSTR5   122
    X22       OBJ       418
    X22       CONSTR1   567
    X22       CONSTR2   274
    X22       CONSTR3   241
    X22       CONSTR4   303
    X22       CONSTR5   447
    X23       OBJ       502
    X23       CONSTR1   168
    X23       CONSTR2   69
    X23       CONSTR3   308
    X23       CONSTR4   568
    X23       CONSTR5   881
    X24       OBJ       667
    X24       CONSTR1   798
    X24       CONSTR2   87
    X24       CONSTR3   436
    X24       CONSTR4   489
    X24       CONSTR5   847
    X25       OBJ       1105
    X25       CONSTR1   693
    X25       CONSTR2   693
    X25       CONSTR3   368
    X25       CONSTR4   727
    X25       CONSTR5   971
    X26       OBJ       694
    X26       CONSTR1   2
    X26       CONSTR2   449
    X26       CONSTR3   773
    X26       CONSTR4   149
    X26       CONSTR5   500
    X27       OBJ       865
    X27       CONSTR1   317
    X27       CONSTR2   840
    X27       CONSTR3   523
    X27       CONSTR4   709
    X27       CONSTR5   644
    X28       OBJ       554
    X28       CONSTR1   576
    X28       CONSTR2   480
    X28       CONSTR3   223
    X28       CONSTR4   510
    X28       CONSTR5   116
    X29       OBJ       852
    X29       CONSTR1   393
    X29       CONSTR2   662
    X29       CONSTR3   978
    X29       CONSTR4   747
    X29       CONSTR5   679
    X30       OBJ       717
    X30       CONSTR1   990
    X30       CONSTR2   906
    X30       CONSTR3   141
    X30       CONSTR4   208
    X30       CONSTR5   315
    X31       OBJ       642
    X31       CONSTR1   284
    X31       CONSTR2   877
    X31       CONSTR3   47
    X31       CONSTR4   605
    X31       CONSTR5   648
    X32       OBJ       445
    X32       CONSTR1   235
    X32       CONSTR2   320
    X32       CONSTR3   386
    X32       CONSTR4   55
    X32       CONSTR5   378
    X33       OBJ       1083
    X33       CONSTR1   602
    X33       CONSTR2   890
    X33       CONSTR3   766
    X33       CONSTR4   549
    X33       CONSTR5   450
    X34       OBJ       596
    X34       CONSTR1   374
    X34       CONSTR2   791
    X34       CONSTR3   729
    X34       CONSTR4   411
    X34       CONSTR5   187
    X35       OBJ       849
    X35       CONSTR1   471
    X35       CONSTR2   464
    X35       CONSTR3   748
    X35       CONSTR4   131
    X35       CONSTR5   368
    X36       OBJ       619
    X36       CONSTR1   196
    X36       CONSTR2   316
    X36       CONSTR3   628
    X36       CONSTR4   83
    X36       CONSTR5   427
    X37       OBJ       406
    X37       CONSTR1   30
    X37       CONSTR2   78
    X37       CONSTR3   47
    X37       CONSTR4   785
    X37       CONSTR5   225
    X38       OBJ       775
    X38       CONSTR1   268
    X38       CONSTR2   800
    X38       CONSTR3   826
    X38       CONSTR4   273
    X38       CONSTR5   57
    X39       OBJ       441
    X39       CONSTR1   47
    X39       CONSTR2   576
    X39       CONSTR3   234
    X39       CONSTR4   396
    X39       CONSTR5   458
    X40       OBJ       714
    X40       CONSTR1   516
    X40       CONSTR2   728
    X40       CONSTR3   430
    X40       CONSTR4   445
    X40       CONSTR5   274
    X41       OBJ       513
    X41       CONSTR1   362
    X41       CONSTR2   475
    X41       CONSTR3   123
    X41       CONSTR4   417
    X41       CONSTR5   182
    X42       OBJ       651
    X42       CONSTR1   963
    X42       CONSTR2   546
    X42       CONSTR3   265
    X42       CONSTR4   365
    X42       CONSTR5   395
    X43       OBJ       1060
    X43       CONSTR1   570
    X43       CONSTR2   845
    X43       CONSTR3   909
    X43       CONSTR4   873
    X43       CONSTR5   396
    X44       OBJ       409
    X44       CONSTR1   174
    X44       CONSTR2   406
    X44       CONSTR3   143
    X44       CONSTR4   155
    X44       CONSTR5   613
    X45       OBJ       723
    X45       CONSTR1   226
    X45       CONSTR2   86
    X45       CONSTR3   395
    X45       CONSTR4   879
    X45       CONSTR5   47
    X46       OBJ       761
    X46       CONSTR1   281
    X46       CONSTR2   580
    X46       CONSTR3   863
    X46       CONSTR4   741
    X46       CONSTR5   337
    X47       OBJ       784
    X47       CONSTR1   213
    X47       CONSTR2   856
    X47       CONSTR3   154
    X47       CONSTR4   426
    X47       CONSTR5   586
    X48       OBJ       651
    X48       CONSTR1   297
    X48       CONSTR2   927
    X48       CONSTR3   262
    X48       CONSTR4   742
    X48       CONSTR5   694
    X49       OBJ       725
    X49       CONSTR1   699
    X49       CONSTR2   325
    X49       CONSTR3   335
    X49       CONSTR4   755
    X49       CONSTR5   813
    X50       OBJ       761
    X50       CONSTR1   51
    X50       CONSTR2   655
    X50       CONSTR3   696
    X50       CONSTR4   118
    X50       CONSTR5   340
    X51       OBJ       576
    X51       CONSTR1   327
    X51       CONSTR2   85
    X51       CONSTR3   313
    X51       CONSTR4   26
    X51       CONSTR5   51
    X52       OBJ       508
    X52       CONSTR1   590
    X52       CONSTR2   690
    X52       CONSTR3   557
    X52       CONSTR4   24
    X52       CONSTR5   41
    X53       OBJ       731
    X53       CONSTR1   929
    X53       CONSTR2   95
    X53       CONSTR3   150
    X53       CONSTR4   88
    X53       CONSTR5   981
    X54       OBJ       704
    X54       CONSTR1   342
    X54       CONSTR2   4
    X54       CONSTR3   558
    X54       CONSTR4   534
    X54       CONSTR5   699
    X55       OBJ       640
    X55       CONSTR1   883
    X55       CONSTR2   193
    X55       CONSTR3   898
    X55       CONSTR4   62
    X55       CONSTR5   862
    X56       OBJ       616
    X56       CONSTR1   145
    X56       CONSTR2   552
    X56       CONSTR3   82
    X56       CONSTR4   17
    X56       CONSTR5   574
    X57       OBJ       855
    X57       CONSTR1   31
    X57       CONSTR2   840
    X57       CONSTR3   984
    X57       CONSTR4   455
    X57       CONSTR5   873
    X58       OBJ       1001
    X58       CONSTR1   753
    X58       CONSTR2   458
    X58       CONSTR3   246
    X58       CONSTR4   923
    X58       CONSTR5   738
    X59       OBJ       641
    X59       CONSTR1   947
    X59       CONSTR2   995
    X59       CONSTR3   98
    X59       CONSTR4   293
    X59       CONSTR5   487
    X60       OBJ       834
    X60       CONSTR1   71
    X60       CONSTR2   491
    X60       CONSTR3   860
    X60       CONSTR4   640
    X60       CONSTR5   12
    X61       OBJ       537
    X61       CONSTR1   449
    X61       CONSTR2   7
    X61       CONSTR3   597
    X61       CONSTR4   856
    X61       CONSTR5   556
    X62       OBJ       620
    X62       CONSTR1   579
    X62       CONSTR2   518
    X62       CONSTR3   101
    X62       CONSTR4   919
    X62       CONSTR5   689
    X63       OBJ       603
    X63       CONSTR1   772
    X63       CONSTR2   284
    X63       CONSTR3   762
    X63       CONSTR4   751
    X63       CONSTR5   282
    X64       OBJ       364
    X64       CONSTR1   876
    X64       CONSTR2   121
    X64       CONSTR3   607
    X64       CONSTR4   178
    X64       CONSTR5   1
    X65       OBJ       553
    X65       CONSTR1   755
    X65       CONSTR2   728
    X65       CONSTR3   530
    X65       CONSTR4   332
    X65       CONSTR5   31
    X66       OBJ       615
    X66       CONSTR1   342
    X66       CONSTR2   306
    X66       CONSTR3   657
    X66       CONSTR4   784
    X66       CONSTR5   5
    X67       OBJ       589
    X67       CONSTR1   30
    X67       CONSTR2   646
    X67       CONSTR3   340
    X67       CONSTR4   749
    X67       CONSTR5   787
    X68       OBJ       574
    X68       CONSTR1   809
    X68       CONSTR2   365
    X68       CONSTR3   104
    X68       CONSTR4   51
    X68       CONSTR5   348
    X69       OBJ       790
    X69       CONSTR1   24
    X69       CONSTR2   632
    X69       CONSTR3   943
    X69       CONSTR4   875
    X69       CONSTR5   286
    X70       OBJ       759
    X70       CONSTR1   336
    X70       CONSTR2   937
    X70       CONSTR3   783
    X70       CONSTR4   417
    X70       CONSTR5   361
    X71       OBJ       700
    X71       CONSTR1   217
    X71       CONSTR2   558
    X71       CONSTR3   621
    X71       CONSTR4   196
    X71       CONSTR5   123
    X72       OBJ       887
    X72       CONSTR1   568
    X72       CONSTR2   48
    X72       CONSTR3   688
    X72       CONSTR4   727
    X72       CONSTR5   39
    X73       OBJ       575
    X73       CONSTR1   299
    X73       CONSTR2   229
    X73       CONSTR3   721
    X73       CONSTR4   950
    X73       CONSTR5   490
    X74       OBJ       550
    X74       CONSTR1   157
    X74       CONSTR2   303
    X74       CONSTR3   384
    X74       CONSTR4   483
    X74       CONSTR5   138
    X75       OBJ       1162
    X75       CONSTR1   846
    X75       CONSTR2   666
    X75       CONSTR3   233
    X75       CONSTR4   809
    X75       CONSTR5   892
    X76       OBJ       772
    X76       CONSTR1   183
    X76       CONSTR2   873
    X76       CONSTR3   689
    X76       CONSTR4   232
    X76       CONSTR5   829
    X77       OBJ       973
    X77       CONSTR1   654
    X77       CONSTR2   881
    X77       CONSTR3   296
    X77       CONSTR4   101
    X77       CONSTR5   933
    X78       OBJ       387
    X78       CONSTR1   223
    X78       CONSTR2   411
    X78       CONSTR3   339
    X78       CONSTR4   745
    X78       CONSTR5   141
    X79       OBJ       383
    X79       CONSTR1   10
    X79       CONSTR2   272
    X79       CONSTR3   209
    X79       CONSTR4   507
    X79       CONSTR5   758
    X80       OBJ       700
    X80       CONSTR1   870
    X80       CONSTR2   466
    X80       CONSTR3   122
    X80       CONSTR4   261
    X80       CONSTR5   679
    X81       OBJ       934
    X81       CONSTR1   835
    X81       CONSTR2   330
    X81       CONSTR3   599
    X81       CONSTR4   814
    X81       CONSTR5   47
    X82       OBJ       650
    X82       CONSTR1   808
    X82       CONSTR2   665
    X82       CONSTR3   624
    X82       CONSTR4   757
    X82       CONSTR5   98
    X83       OBJ       959
    X83       CONSTR1   508
    X83       CONSTR2   60
    X83       CONSTR3   861
    X83       CONSTR4   652
    X83       CONSTR5   729
    X84       OBJ       1282
    X84       CONSTR1   977
    X84       CONSTR2   782
    X84       CONSTR3   866
    X84       CONSTR4   727
    X84       CONSTR5   982
    X85       OBJ       969
    X85       CONSTR1   309
    X85       CONSTR2   450
    X85       CONSTR3   543
    X85       CONSTR4   658
    X85       CONSTR5   675
    X86       OBJ       1163
    X86       CONSTR1   997
    X86       CONSTR2   769
    X86       CONSTR3   810
    X86       CONSTR4   902
    X86       CONSTR5   749
    X87       OBJ       886
    X87       CONSTR1   920
    X87       CONSTR2   583
    X87       CONSTR3   769
    X87       CONSTR4   421
    X87       CONSTR5   42
    X88       OBJ       835
    X88       CONSTR1   892
    X88       CONSTR2   427
    X88       CONSTR3   846
    X88       CONSTR4   731
    X88       CONSTR5   168
    X89       OBJ       1137
    X89       CONSTR1   749
    X89       CONSTR2   799
    X89       CONSTR3   955
    X89       CONSTR4   1000
    X89       CONSTR5   600
    X90       OBJ       502
    X90       CONSTR1   355
    X90       CONSTR2   266
    X90       CONSTR3   642
    X90       CONSTR4   303
    X90       CONSTR5   192
    X91       OBJ       483
    X91       CONSTR1   819
    X91       CONSTR2   319
    X91       CONSTR3   561
    X91       CONSTR4   68
    X91       CONSTR5   337
    X92       OBJ       511
    X92       CONSTR1   186
    X92       CONSTR2   100
    X92       CONSTR3   922
    X92       CONSTR4   53
    X92       CONSTR5   163
    X93       OBJ       796
    X93       CONSTR1   46
    X93       CONSTR2   362
    X93       CONSTR3   994
    X93       CONSTR4   501
    X93       CONSTR5   264
    X94       OBJ       1090
    X94       CONSTR1   591
    X94       CONSTR2   213
    X94       CONSTR3   931
    X94       CONSTR4   782
    X94       CONSTR5   793
    X95       OBJ       690
    X95       CONSTR1   102
    X95       CONSTR2   307
    X95       CONSTR3   908
    X95       CONSTR4   718
    X95       CONSTR5   536
    X96       OBJ       901
    X96       CONSTR1   859
    X96       CONSTR2   468
    X96       CONSTR3   329
    X96       CONSTR4   979
    X96       CONSTR5   843
    X97       OBJ       773
    X97       CONSTR1   935
    X97       CONSTR2   352
    X97       CONSTR3   366
    X97       CONSTR4   530
    X97       CONSTR5   715
    X98       OBJ       829
    X98       CONSTR1   855
    X98       CONSTR2   873
    X98       CONSTR3   513
    X98       CONSTR4   824
    X98       CONSTR5   964
    X99       OBJ       885
    X99       CONSTR1   334
    X99       CONSTR2   355
    X99       CONSTR3   274
    X99       CONSTR4   692
    X99       CONSTR5   651
    X100      OBJ       1103
    X100      CONSTR1   968
    X100      CONSTR2   89
    X100      CONSTR3   868
    X100      CONSTR4   926
    X100      CONSTR5   619
    INT0001   'MARKER'  'INTEND'
RHS
    RHS10001  CONSTR1   24045
    RHS10001  CONSTR2   24345
    RHS10001  CONSTR3   26096
    RHS10001  CONSTR4   25634
    RHS10001  CONSTR5   24302
BOUNDS
 BV BND       X1        .00
 BV BND       X2        .00
 BV BND       X3        .00
 BV BND       X4        .00
 BV BND       X5        .00
 BV BND       X6        .00
 BV BND       X7        .00
 BV BND       X8        .00
 BV BND       X9        .00
 BV BND       X10       .00
 BV BND       X11       .00
 BV BND       X12       .00
 BV BND       X13       .00
 BV BND       X14       .00
 BV BND       X15       .00
 BV BND       X16       .00
 BV BND       X17       .00
 BV BND       X18       .00
 BV BND       X19       .00
 BV BND       X20       .00
 BV BND       X21       .00
 BV BND       X22       .00
 BV BND       X23       .00
 BV BND       X24       .00
 BV BND       X25       .00
 BV BND       X26       .00
 BV BND       X27       .00
 BV BND       X28       .00
 BV BND       X29       .00
 BV BND       X30       .00
 BV BND       X31       .00
 BV BND       X32       .00
 BV BND       X33       .00
 BV BND       X34       .00
 BV BND       X35       .00
 BV BND       X36       .00
 BV BND       X37       .00
 BV BND       X38       .00
 BV BND       X39       .00
 BV BND       X40       .00
 BV BND       X41       .00
 BV BND       X42       .00
 BV BND       X43       .00
 BV BND       X44       .00
 BV BND       X45       .00
 BV BND       X46       .00
 BV BND       X47       .00
 BV BND       X48       .00
 BV BND       X49       .00
 BV BND       X50       .00
 BV BND       X51       .00
 BV BND       X52       .00
 BV BND       X53       .00
 BV BND       X54       .00
 BV BND       X55       .00
 BV BND       X56       .00
 BV BND       X57       .00
 BV BND       X58       .00
 BV BND       X59       .00
 BV BND       X60       .00
 BV BND       X61       .00
 BV BND       X62       .00
 BV BND       X63       .00
 BV BND       X64       .00
 BV BND       X65       .00
 BV BND       X66       .00
 BV BND       X67       .00
 BV BND       X68       .00
 BV BND       X69       .00
 BV BND       X70       .00
 BV BND       X71       .00
 BV BND       X72       .00
 BV BND       X73       .00
 BV BND       X74       .00
 BV BND       X75       .00
 BV BND       X76       .00
 BV BND       X77       .00
 BV BND       X78       .00
 BV BND       X79       .00
 BV BND       X80       .00
 BV BND       X81       .00
 BV BND       X82       .00
 BV BND       X83       .00
 BV BND       X84       .00
 BV BND       X85       .00
 BV BND       X86       .00
 BV BND       X87       .00
 BV BND       X88       .00
 BV BND       X89       .00
 BV BND       X90       .00
 BV BND       X91       .00
 BV BND       X92       .00
 BV BND       X93       .00
 BV BND       X94       .00
 BV BND       X95       .00
 BV BND       X96       .00
 BV BND       X97       .00
 BV BND       X98       .00
 BV BND       X99       .00
 BV BND       X100      .00
ENDATA
